11 965
525 7 482 7 393 7 246 9 101 11 3 15 843 19 651 23
525 7 477 7 390 7 241 9 75 11 912 18
525 7 482 7 362 7 118 9 855 11 673 18
525 7 446 7 267 7 66 9 891 11 731 18
525 7 446 7 267 7 66 9 891 11 731 18
525 7 446 7 267 7 66 9 891 11 731 18
529 7 486 7 370 7 181 9 862 11 640 18
521 7 475 7 329 11
529 7 483 7 337 11
528 7 485 7 369 7 124 9 953 13
529 7 485 7 342 11
